150 7433
1 87 34 63 10 113 94 88 121 79 59 16 122 77 14 80 72 144 129 27 31 123 74 13 106 91 119 68 128 4 104 22 125 149 62 3 48 73 76 103 98 7 84 8 30 89 96 35 126 33 54 92 90 56 146 26 75 18 142 85 65 132 137 50 108 70 86 29 81 110 25 20 51 109 43 67 32 23 49 147 145 136 112 64 44 45 71 115 150 21 78 15 133 134 138 46 83 141 55 58 135 102 114 99 19 2 37 6 28 9 42 47 120 139 53 40 118 24 12 116 101 57 39 127 69 61 36 11 148 130 60 66 17 140 117 41 38 131 105 111 52 93 124 97 143 100 5 107 95 82 
